(set-info :smt-lib-version 2.6)
(set-logic QF_NIA)
(set-info :source |
Generated by: Cristina Borralleras, Daniel Larraz, Albert Oliveras, Enric Rodriguez-Carbonell, Albert Rubio
Generated on: 2017-04-27
Generator: VeryMax
Application: Termination proving
Target solver: barcelogic
|)
(set-info :license "https://creativecommons.org/licenses/by/4.0/")
(set-info :category "industrial")
(set-info :status unknown)
(declare-fun Nl5main_id1 () Int)
(declare-fun Nl5main_maxId1 () Int)
(declare-fun Nl5main_tmp1 () Int)
(declare-fun Nl5main_id2 () Int)
(declare-fun Nl5main_maxId2 () Int)
(declare-fun Nl5main_tmp2 () Int)
(declare-fun Nl5main_id3 () Int)
(declare-fun Nl5main_maxId3 () Int)
(declare-fun Nl5main_tmp3 () Int)
(declare-fun lam0n0 () Int)
(declare-fun lam0n1 () Int)
(declare-fun lam0n2 () Int)
(declare-fun lam0n3 () Int)
(declare-fun lam0n4 () Int)
(declare-fun lam0n5 () Int)
(declare-fun lam0n7 () Int)
(declare-fun lam0n8 () Int)
(declare-fun lam0n9 () Int)
(declare-fun lam0n10 () Int)
(declare-fun lam0n6 () Int)
(declare-fun UndefCntr0_CT () Int)
(declare-fun Nl5CT1 () Int)
(declare-fun Nl5CT2 () Int)
(declare-fun Nl5CT3 () Int)
(declare-fun UndefCntr0_main_id () Int)
(declare-fun UndefCntr0_main_maxId () Int)
(declare-fun UndefCntr0_main_tmp () Int)
(declare-fun UndefCntr0_undef6 () Int)
(declare-fun lam1n0 () Int)
(declare-fun lam1n1 () Int)
(declare-fun lam1n2 () Int)
(declare-fun lam1n3 () Int)
(declare-fun lam1n4 () Int)
(declare-fun lam1n5 () Int)
(declare-fun lam1n7 () Int)
(declare-fun lam1n8 () Int)
(declare-fun lam1n9 () Int)
(declare-fun lam1n10 () Int)
(declare-fun lam1n6 () Int)
(declare-fun lam2n0 () Int)
(declare-fun lam2n1 () Int)
(declare-fun lam2n2 () Int)
(declare-fun lam2n3 () Int)
(declare-fun lam2n4 () Int)
(declare-fun lam2n5 () Int)
(declare-fun lam2n7 () Int)
(declare-fun lam2n8 () Int)
(declare-fun lam2n9 () Int)
(declare-fun lam2n10 () Int)
(declare-fun lam2n6 () Int)
(declare-fun lam3n0 () Int)
(declare-fun lam3n1 () Int)
(declare-fun lam3n2 () Int)
(declare-fun lam3n3 () Int)
(declare-fun lam3n4 () Int)
(declare-fun lam3n5 () Int)
(declare-fun lam3n7 () Int)
(declare-fun lam3n8 () Int)
(declare-fun lam3n9 () Int)
(declare-fun lam3n10 () Int)
(declare-fun lam3n6 () Int)
(declare-fun lam4n0 () Int)
(declare-fun lam4n1 () Int)
(declare-fun lam4n2 () Int)
(declare-fun lam4n3 () Int)
(declare-fun lam5n0 () Int)
(declare-fun lam5n1 () Int)
(declare-fun lam5n2 () Int)
(declare-fun lam5n3 () Int)
(declare-fun lam6n0 () Int)
(declare-fun lam6n1 () Int)
(declare-fun lam6n2 () Int)
(declare-fun lam6n3 () Int)
(declare-fun undef4 () Int)
(declare-fun undef5 () Int)
(declare-fun main_id () Int)
(declare-fun main_maxId () Int)
(declare-fun FV_undef6_0 () Int)
(declare-fun FV_main_id_0 () Int)
(declare-fun FV_main_maxId_0 () Int)
(declare-fun FV_main_tmp_0 () Int)
(declare-fun lam7n0 () Int)
(declare-fun lam7n1 () Int)
(declare-fun lam7n2 () Int)
(declare-fun lam7n3 () Int)
(declare-fun lam7n4 () Int)
(declare-fun lam7n5 () Int)
(declare-fun lam7n6 () Int)
(declare-fun lam7n7 () Int)
(declare-fun FV_main_id_1 () Int)
(declare-fun FV_main_maxId_1 () Int)
(declare-fun FV_main_tmp_1 () Int)
(declare-fun FV_undef6_1 () Int)
(assert ( and ( <= ( - 1 ) Nl5main_id1 ) ( <= Nl5main_id1 1 ) ( <= ( - 1 ) Nl5main_maxId1 ) ( <= Nl5main_maxId1 1 ) ( <= ( - 1 ) Nl5main_tmp1 ) ( <= Nl5main_tmp1 1 ) ( <= ( - 1 ) Nl5main_id2 ) ( <= Nl5main_id2 1 ) ( <= ( - 1 ) Nl5main_maxId2 ) ( <= Nl5main_maxId2 1 ) ( <= ( - 1 ) Nl5main_tmp2 ) ( <= Nl5main_tmp2 1 ) ( <= ( - 1 ) Nl5main_id3 ) ( <= Nl5main_id3 1 ) ( <= ( - 1 ) Nl5main_maxId3 ) ( <= Nl5main_maxId3 1 ) ( <= ( - 1 ) Nl5main_tmp3 ) ( <= Nl5main_tmp3 1 ) ))
(assert ( or ( and ( >= lam0n0 0 ) ( >= lam0n1 0 ) ( >= lam0n2 0 ) ( >= lam0n3 0 ) ( >= lam0n4 0 ) ( >= lam0n5 0 ) ( >= lam0n7 0 ) ( >= lam0n8 0 ) ( >= lam0n9 0 ) ( >= lam0n10 0 ) ( > ( + ( * 1 lam0n4 ) ( * ( - 1 ) lam0n5 ) ( * ( - 1 ) lam0n6 ) ( * UndefCntr0_CT lam0n7 ) ( * Nl5CT1 lam0n8 ) ( * Nl5CT2 lam0n9 ) ( * Nl5CT3 lam0n10 ) ( - 1 ) ) 0 ) ( = ( + ( * ( - 1 ) lam0n0 ) ( * 1 lam0n4 ) ( * 1 lam0n5 ) ( * UndefCntr0_main_id lam0n7 ) ( * Nl5main_id1 lam0n8 ) ( * Nl5main_id2 lam0n9 ) ( * Nl5main_id3 lam0n10 ) ) 0 ) ( = ( + ( * ( - 1 ) lam0n1 ) ( * ( - 1 ) lam0n2 ) ( * ( - 1 ) lam0n5 ) ( * UndefCntr0_main_maxId lam0n7 ) ( * Nl5main_maxId1 lam0n8 ) ( * Nl5main_maxId2 lam0n9 ) ( * Nl5main_maxId3 lam0n10 ) ) 0 ) ( = ( + ( * 1 lam0n1 ) ( * ( - 1 ) lam0n2 ) ( * ( - 1 ) lam0n3 ) ( * ( - 1 ) lam0n4 ) ( * UndefCntr0_main_tmp lam0n7 ) ( * Nl5main_tmp1 lam0n8 ) ( * Nl5main_tmp2 lam0n9 ) ( * Nl5main_tmp3 lam0n10 ) ) 0 ) ( = ( + ( * 1 lam0n6 ) ( * UndefCntr0_undef6 lam0n7 ) ) 0 ) ) ( and ( >= lam1n0 0 ) ( >= lam1n1 0 ) ( >= lam1n2 0 ) ( >= lam1n3 0 ) ( >= lam1n4 0 ) ( >= lam1n5 0 ) ( >= lam1n7 0 ) ( >= lam1n8 0 ) ( >= lam1n9 0 ) ( >= lam1n10 0 ) ( > ( + ( * 1 lam1n4 ) ( * ( - 1 ) lam1n5 ) ( * ( - 1 ) lam1n6 ) ( * UndefCntr0_CT lam1n7 ) ( * Nl5CT1 lam1n8 ) ( * Nl5CT2 lam1n9 ) ( * Nl5CT3 lam1n10 ) ( - 1 ( + Nl5CT1 ( * Nl5main_tmp1 1 ) ) ) ) 0 ) ( = ( + ( * ( - 1 ) lam1n0 ) ( * 1 lam1n4 ) ( * 1 lam1n5 ) ( * UndefCntr0_main_id lam1n7 ) ( * Nl5main_id1 lam1n8 ) ( * Nl5main_id2 lam1n9 ) ( * Nl5main_id3 lam1n10 ) ( - ( + 0 Nl5main_id1 ) ) ) 0 ) ( = ( + ( * ( - 1 ) lam1n1 ) ( * ( - 1 ) lam1n2 ) ( * ( - 1 ) lam1n5 ) ( * UndefCntr0_main_maxId lam1n7 ) ( * Nl5main_maxId1 lam1n8 ) ( * Nl5main_maxId2 lam1n9 ) ( * Nl5main_maxId3 lam1n10 ) ( - ( + 0 Nl5main_maxId1 ) ) ) 0 ) ( = ( + ( * 1 lam1n1 ) ( * ( - 1 ) lam1n2 ) ( * ( - 1 ) lam1n3 ) ( * ( - 1 ) lam1n4 ) ( * UndefCntr0_main_tmp lam1n7 ) ( * Nl5main_tmp1 lam1n8 ) ( * Nl5main_tmp2 lam1n9 ) ( * Nl5main_tmp3 lam1n10 ) ( - ( + 0 ( * Nl5main_tmp1 1 ) ) ) ) 0 ) ( = ( + ( * 1 lam1n6 ) ( * UndefCntr0_undef6 lam1n7 ) ) 0 ) ) ))
(assert ( or ( and ( >= lam0n0 0 ) ( >= lam0n1 0 ) ( >= lam0n2 0 ) ( >= lam0n3 0 ) ( >= lam0n4 0 ) ( >= lam0n5 0 ) ( >= lam0n7 0 ) ( >= lam0n8 0 ) ( >= lam0n9 0 ) ( >= lam0n10 0 ) ( > ( + ( * 1 lam0n4 ) ( * ( - 1 ) lam0n5 ) ( * ( - 1 ) lam0n6 ) ( * UndefCntr0_CT lam0n7 ) ( * Nl5CT1 lam0n8 ) ( * Nl5CT2 lam0n9 ) ( * Nl5CT3 lam0n10 ) ( - 1 ) ) 0 ) ( = ( + ( * ( - 1 ) lam0n0 ) ( * 1 lam0n4 ) ( * 1 lam0n5 ) ( * UndefCntr0_main_id lam0n7 ) ( * Nl5main_id1 lam0n8 ) ( * Nl5main_id2 lam0n9 ) ( * Nl5main_id3 lam0n10 ) ) 0 ) ( = ( + ( * ( - 1 ) lam0n1 ) ( * ( - 1 ) lam0n2 ) ( * ( - 1 ) lam0n5 ) ( * UndefCntr0_main_maxId lam0n7 ) ( * Nl5main_maxId1 lam0n8 ) ( * Nl5main_maxId2 lam0n9 ) ( * Nl5main_maxId3 lam0n10 ) ) 0 ) ( = ( + ( * 1 lam0n1 ) ( * ( - 1 ) lam0n2 ) ( * ( - 1 ) lam0n3 ) ( * ( - 1 ) lam0n4 ) ( * UndefCntr0_main_tmp lam0n7 ) ( * Nl5main_tmp1 lam0n8 ) ( * Nl5main_tmp2 lam0n9 ) ( * Nl5main_tmp3 lam0n10 ) ) 0 ) ( = ( + ( * 1 lam0n6 ) ( * UndefCntr0_undef6 lam0n7 ) ) 0 ) ) ( and ( >= lam2n0 0 ) ( >= lam2n1 0 ) ( >= lam2n2 0 ) ( >= lam2n3 0 ) ( >= lam2n4 0 ) ( >= lam2n5 0 ) ( >= lam2n7 0 ) ( >= lam2n8 0 ) ( >= lam2n9 0 ) ( >= lam2n10 0 ) ( > ( + ( * 1 lam2n4 ) ( * ( - 1 ) lam2n5 ) ( * ( - 1 ) lam2n6 ) ( * UndefCntr0_CT lam2n7 ) ( * Nl5CT1 lam2n8 ) ( * Nl5CT2 lam2n9 ) ( * Nl5CT3 lam2n10 ) ( - 1 ( + Nl5CT2 ( * Nl5main_tmp2 1 ) ) ) ) 0 ) ( = ( + ( * ( - 1 ) lam2n0 ) ( * 1 lam2n4 ) ( * 1 lam2n5 ) ( * UndefCntr0_main_id lam2n7 ) ( * Nl5main_id1 lam2n8 ) ( * Nl5main_id2 lam2n9 ) ( * Nl5main_id3 lam2n10 ) ( - ( + 0 Nl5main_id2 ) ) ) 0 ) ( = ( + ( * ( - 1 ) lam2n1 ) ( * ( - 1 ) lam2n2 ) ( * ( - 1 ) lam2n5 ) ( * UndefCntr0_main_maxId lam2n7 ) ( * Nl5main_maxId1 lam2n8 ) ( * Nl5main_maxId2 lam2n9 ) ( * Nl5main_maxId3 lam2n10 ) ( - ( + 0 Nl5main_maxId2 ) ) ) 0 ) ( = ( + ( * 1 lam2n1 ) ( * ( - 1 ) lam2n2 ) ( * ( - 1 ) lam2n3 ) ( * ( - 1 ) lam2n4 ) ( * UndefCntr0_main_tmp lam2n7 ) ( * Nl5main_tmp1 lam2n8 ) ( * Nl5main_tmp2 lam2n9 ) ( * Nl5main_tmp3 lam2n10 ) ( - ( + 0 ( * Nl5main_tmp2 1 ) ) ) ) 0 ) ( = ( + ( * 1 lam2n6 ) ( * UndefCntr0_undef6 lam2n7 ) ) 0 ) ) ))
(assert ( or ( and ( >= lam0n0 0 ) ( >= lam0n1 0 ) ( >= lam0n2 0 ) ( >= lam0n3 0 ) ( >= lam0n4 0 ) ( >= lam0n5 0 ) ( >= lam0n7 0 ) ( >= lam0n8 0 ) ( >= lam0n9 0 ) ( >= lam0n10 0 ) ( > ( + ( * 1 lam0n4 ) ( * ( - 1 ) lam0n5 ) ( * ( - 1 ) lam0n6 ) ( * UndefCntr0_CT lam0n7 ) ( * Nl5CT1 lam0n8 ) ( * Nl5CT2 lam0n9 ) ( * Nl5CT3 lam0n10 ) ( - 1 ) ) 0 ) ( = ( + ( * ( - 1 ) lam0n0 ) ( * 1 lam0n4 ) ( * 1 lam0n5 ) ( * UndefCntr0_main_id lam0n7 ) ( * Nl5main_id1 lam0n8 ) ( * Nl5main_id2 lam0n9 ) ( * Nl5main_id3 lam0n10 ) ) 0 ) ( = ( + ( * ( - 1 ) lam0n1 ) ( * ( - 1 ) lam0n2 ) ( * ( - 1 ) lam0n5 ) ( * UndefCntr0_main_maxId lam0n7 ) ( * Nl5main_maxId1 lam0n8 ) ( * Nl5main_maxId2 lam0n9 ) ( * Nl5main_maxId3 lam0n10 ) ) 0 ) ( = ( + ( * 1 lam0n1 ) ( * ( - 1 ) lam0n2 ) ( * ( - 1 ) lam0n3 ) ( * ( - 1 ) lam0n4 ) ( * UndefCntr0_main_tmp lam0n7 ) ( * Nl5main_tmp1 lam0n8 ) ( * Nl5main_tmp2 lam0n9 ) ( * Nl5main_tmp3 lam0n10 ) ) 0 ) ( = ( + ( * 1 lam0n6 ) ( * UndefCntr0_undef6 lam0n7 ) ) 0 ) ) ( and ( >= lam3n0 0 ) ( >= lam3n1 0 ) ( >= lam3n2 0 ) ( >= lam3n3 0 ) ( >= lam3n4 0 ) ( >= lam3n5 0 ) ( >= lam3n7 0 ) ( >= lam3n8 0 ) ( >= lam3n9 0 ) ( >= lam3n10 0 ) ( > ( + ( * 1 lam3n4 ) ( * ( - 1 ) lam3n5 ) ( * ( - 1 ) lam3n6 ) ( * UndefCntr0_CT lam3n7 ) ( * Nl5CT1 lam3n8 ) ( * Nl5CT2 lam3n9 ) ( * Nl5CT3 lam3n10 ) ( - 1 ( + Nl5CT3 ( * Nl5main_tmp3 1 ) ) ) ) 0 ) ( = ( + ( * ( - 1 ) lam3n0 ) ( * 1 lam3n4 ) ( * 1 lam3n5 ) ( * UndefCntr0_main_id lam3n7 ) ( * Nl5main_id1 lam3n8 ) ( * Nl5main_id2 lam3n9 ) ( * Nl5main_id3 lam3n10 ) ( - ( + 0 Nl5main_id3 ) ) ) 0 ) ( = ( + ( * ( - 1 ) lam3n1 ) ( * ( - 1 ) lam3n2 ) ( * ( - 1 ) lam3n5 ) ( * UndefCntr0_main_maxId lam3n7 ) ( * Nl5main_maxId1 lam3n8 ) ( * Nl5main_maxId2 lam3n9 ) ( * Nl5main_maxId3 lam3n10 ) ( - ( + 0 Nl5main_maxId3 ) ) ) 0 ) ( = ( + ( * 1 lam3n1 ) ( * ( - 1 ) lam3n2 ) ( * ( - 1 ) lam3n3 ) ( * ( - 1 ) lam3n4 ) ( * UndefCntr0_main_tmp lam3n7 ) ( * Nl5main_tmp1 lam3n8 ) ( * Nl5main_tmp2 lam3n9 ) ( * Nl5main_tmp3 lam3n10 ) ( - ( + 0 ( * Nl5main_tmp3 1 ) ) ) ) 0 ) ( = ( + ( * 1 lam3n6 ) ( * UndefCntr0_undef6 lam3n7 ) ) 0 ) ) ))
(assert ( and ( <= ( * ( - 1 ) undef4 ) 0 ) ( <= ( + 1 undef4 ( * ( - 1 ) undef5 ) ) 0 ) ( = ( + main_id ( * ( - 1 ) undef4 ) ) 0 ) ( = ( + main_maxId ( * ( - 1 ) undef5 ) ) 0 ) ( <= ( + ( + Nl5CT1 ( * Nl5main_tmp1 1 ) ) ( * ( + 0 Nl5main_id1 ) main_id ) ( * ( + 0 Nl5main_maxId1 ) main_maxId ) ( * ( + 0 ( * Nl5main_tmp1 1 ) ) undef4 ) ) 0 ) ( <= ( + ( + Nl5CT2 ( * Nl5main_tmp2 1 ) ) ( * ( + 0 Nl5main_id2 ) main_id ) ( * ( + 0 Nl5main_maxId2 ) main_maxId ) ( * ( + 0 ( * Nl5main_tmp2 1 ) ) undef4 ) ) 0 ) ( <= ( + ( + Nl5CT3 ( * Nl5main_tmp3 1 ) ) ( * ( + 0 Nl5main_id3 ) main_id ) ( * ( + 0 Nl5main_maxId3 ) main_maxId ) ( * ( + 0 ( * Nl5main_tmp3 1 ) ) undef4 ) ) 0 ) ( <= ( + main_id ( * ( - 1 ) undef4 ) ) 0 ) ( <= ( * ( - 1 ) main_id ) 0 ) ))
(assert ( or ( not ( = UndefCntr0_main_id 0 ) ) ( not ( = UndefCntr0_main_maxId 0 ) ) ( not ( = UndefCntr0_main_tmp 0 ) ) ( not ( = UndefCntr0_undef6 0 ) ) ( = UndefCntr0_CT 0 ) ))
(assert ( or ( and ( = UndefCntr0_main_id 0 ) ( = UndefCntr0_main_maxId 0 ) ( = UndefCntr0_main_tmp 0 ) ) ( not ( = UndefCntr0_undef6 0 ) ) ))
(assert ( or ( = UndefCntr0_undef6 0 ) ( and ( and ( = UndefCntr0_main_id 0 ) ( = UndefCntr0_main_maxId 0 ) ( = UndefCntr0_main_tmp 0 ) ) ( or ( and ( = ( + ( - 1 ) FV_undef6_0 ) 0 ) ( <= ( + UndefCntr0_CT ( * UndefCntr0_undef6 FV_undef6_0 ) ( * UndefCntr0_main_id FV_main_id_0 ) ( * UndefCntr0_main_maxId FV_main_maxId_0 ) ( * UndefCntr0_main_tmp FV_main_tmp_0 ) ) 0 ) ) ( and ( = ( + ( - 1 ) FV_undef6_0 ) 0 ) ( <= ( + UndefCntr0_CT ( * UndefCntr0_undef6 FV_undef6_0 ) ( * UndefCntr0_main_id FV_main_id_0 ) ( * UndefCntr0_main_maxId FV_main_maxId_0 ) ( * UndefCntr0_main_tmp FV_main_tmp_0 ) ) 0 ) ) ) ) ))
(assert ( and ( >= lam7n0 0 ) ( >= lam7n1 0 ) ( >= lam7n2 0 ) ( >= lam7n3 0 ) ( >= lam7n4 0 ) ( >= lam7n5 0 ) ( >= lam7n6 0 ) ( >= lam7n7 0 ) ( > ( + ( * 1 lam7n3 ) ( * 1 lam7n4 ) ( * Nl5CT1 lam7n5 ) ( * Nl5CT2 lam7n6 ) ( * Nl5CT3 lam7n7 ) ( - 1 ) ) 0 ) ( = ( + ( * ( - 1 ) lam7n0 ) ( * 1 lam7n3 ) ( * Nl5main_id1 lam7n5 ) ( * Nl5main_id2 lam7n6 ) ( * Nl5main_id3 lam7n7 ) ) 0 ) ( = ( + ( * ( - 1 ) lam7n1 ) ( * 1 lam7n4 ) ( * Nl5main_maxId1 lam7n5 ) ( * Nl5main_maxId2 lam7n6 ) ( * Nl5main_maxId3 lam7n7 ) ) 0 ) ( = ( + ( * ( - 1 ) lam7n1 ) ( * ( - 1 ) lam7n2 ) ( * ( - 1 ) lam7n3 ) ( * ( - 1 ) lam7n4 ) ( * Nl5main_tmp1 lam7n5 ) ( * Nl5main_tmp2 lam7n6 ) ( * Nl5main_tmp3 lam7n7 ) ) 0 ) ))
(assert ( and ( and ( <= ( + Nl5CT1 ( * Nl5main_id1 FV_main_id_1 ) ( * Nl5main_maxId1 FV_main_maxId_1 ) ( * Nl5main_tmp1 FV_main_tmp_1 ) ) 0 ) ( <= ( + Nl5CT2 ( * Nl5main_id2 FV_main_id_1 ) ( * Nl5main_maxId2 FV_main_maxId_1 ) ( * Nl5main_tmp2 FV_main_tmp_1 ) ) 0 ) ( <= ( + Nl5CT3 ( * Nl5main_id3 FV_main_id_1 ) ( * Nl5main_maxId3 FV_main_maxId_1 ) ( * Nl5main_tmp3 FV_main_tmp_1 ) ) 0 ) ) ( or ( and ( <= ( * ( - 1 ) FV_main_id_1 ) 0 ) ( <= ( + ( * ( - 1 ) FV_main_maxId_1 ) FV_main_tmp_1 ) 0 ) ( <= ( + ( * ( - 1 ) FV_main_maxId_1 ) ( * ( - 1 ) FV_main_tmp_1 ) ) 0 ) ( <= ( * ( - 1 ) FV_main_tmp_1 ) 0 ) ( <= ( + 1 FV_main_id_1 ( * ( - 1 ) FV_main_tmp_1 ) ) 0 ) ( <= ( + ( - 1 ) FV_main_id_1 ( * ( - 1 ) FV_main_maxId_1 ) ) 0 ) ( = ( + ( - 1 ) FV_undef6_1 ) 0 ) ) ( and ( <= ( * ( - 1 ) FV_main_id_1 ) 0 ) ( <= ( * ( - 1 ) FV_main_tmp_1 ) 0 ) ( <= ( + 1 FV_main_id_1 ( * ( - 1 ) FV_main_tmp_1 ) ) 0 ) ( <= ( + 1 FV_main_maxId_1 FV_main_tmp_1 ) 0 ) ) ) ))
(assert ( and ( and ( <= ( + Nl5CT1 ( * Nl5main_id1 FV_main_id_1 ) ( * Nl5main_maxId1 FV_main_maxId_1 ) ( * Nl5main_tmp1 FV_main_tmp_1 ) ) 0 ) ( <= ( + Nl5CT2 ( * Nl5main_id2 FV_main_id_1 ) ( * Nl5main_maxId2 FV_main_maxId_1 ) ( * Nl5main_tmp2 FV_main_tmp_1 ) ) 0 ) ( <= ( + Nl5CT3 ( * Nl5main_id3 FV_main_id_1 ) ( * Nl5main_maxId3 FV_main_maxId_1 ) ( * Nl5main_tmp3 FV_main_tmp_1 ) ) 0 ) ) ( and ( <= ( * ( - 1 ) FV_main_id_1 ) 0 ) ( <= ( * ( - 1 ) FV_main_tmp_1 ) 0 ) ( <= ( + 1 FV_main_id_1 ( * ( - 1 ) FV_main_tmp_1 ) ) 0 ) ( <= ( + 1 FV_main_maxId_1 FV_main_tmp_1 ) 0 ) ) ))
(check-sat)
(exit)
